18 6
35 107 32 123 42 59
5 2 3 5 4 5 5 3 4 4 1 5 4 5 1 4 2 2
10 23 10 34 10 13
8 3 14 9 2 8
16 13 11 9 14 9
14 15 5 8 14 8
6 4 10 5 2 4
8 13 2 5 11 6
16 14 9 9 15 9
11 3 13 8 6 7
7 9 5 0 7 1
16 16 7 9 16 10
12 5 18 13 6 12
15 9 12 8 11 8
5 8 6 2 6 2
9 3 15 10 3 9
11 2 16 11 5 10
4 14 10 9 10 10
6 8 6 1 6 1
1 9 10 7 5 7
8 4 15 10 3 9
